p cnf 245 3366
1 2 3 4 5 6 7 0
8 9 10 11 12 13 14 0
15 16 17 18 19 20 21 0
22 23 24 25 26 27 28 0
29 30 31 32 33 34 35 0
36 37 38 39 40 41 42 0
43 44 45 46 47 48 49 0
50 51 52 53 54 55 56 0
57 58 59 60 61 62 63 0
64 65 66 67 68 69 70 0
71 72 73 74 75 76 77 0
78 79 80 81 82 83 84 0
85 86 87 88 89 90 91 0
92 93 94 95 96 97 98 0
99 100 101 102 103 104 105 0
106 107 108 109 110 111 112 0
113 114 115 116 117 118 119 0
120 121 122 123 124 125 126 0
127 128 129 130 131 132 133 0
134 135 136 137 138 139 140 0
141 142 143 144 145 146 147 0
148 149 150 151 152 153 154 0
155 156 157 158 159 160 161 0
162 163 164 165 166 167 168 0
169 170 171 172 173 174 175 0
176 177 178 179 180 181 182 0
183 184 185 186 187 188 189 0
190 191 192 193 194 195 196 0
197 198 199 200 201 202 203 0
204 205 206 207 208 209 210 0
211 212 213 214 215 216 217 0
218 219 220 221 222 223 224 0
225 226 227 228 229 230 231 0
232 233 234 235 236 237 238 0
239 240 241 242 243 244 245 0
-1 -2 0
-1 -3 0
-1 -4 0
-1 -5 0
-1 -6 0
-1 -7 0
-2 -3 0
-2 -4 0
-2 -5 0
-2 -6 0
-2 -7 0
-3 -4 0
-3 -5 0
-3 -6 0
-3 -7 0
-4 -5 0
-4 -6 0
-4 -7 0
-5 -6 0
-5 -7 0
-6 -7 0
-8 -9 0
-8 -10 0
-8 -11 0
-8 -12 0
-8 -13 0
-8 -14 0
-9 -10 0
-9 -11 0
-9 -12 0
-9 -13 0
-9 -14 0
-10 -11 0
-10 -12 0
-10 -13 0
-10 -14 0
-11 -12 0
-11 -13 0
-11 -14 0
-12 -13 0
-12 -14 0
-13 -14 0
-15 -16 0
-15 -17 0
-15 -18 0
-15 -19 0
-15 -20 0
-15 -21 0
-16 -17 0
-16 -18 0
-16 -19 0
-16 -20 0
-16 -21 0
-17 -18 0
-17 -19 0
-17 -20 0
-17 -21 0
-18 -19 0
-18 -20 0
-18 -21 0
-19 -20 0
-19 -21 0
-20 -21 0
-22 -23 0
-22 -24 0
-22 -25 0
-22 -26 0
-22 -27 0
-22 -28 0
-23 -24 0
-23 -25 0
-23 -26 0
-23 -27 0
-23 -28 0
-24 -25 0
-24 -26 0
-24 -27 0
-24 -28 0
-25 -26 0
-25 -27 0
-25 -28 0
-26 -27 0
-26 -28 0
-27 -28 0
-29 -30 0
-29 -31 0
-29 -32 0
-29 -33 0
-29 -34 0
-29 -35 0
-30 -31 0
-30 -32 0
-30 -33 0
-30 -34 0
-30 -35 0
-31 -32 0
-31 -33 0
-31 -34 0
-31 -35 0
-32 -33 0
-32 -34 0
-32 -35 0
-33 -34 0
-33 -35 0
-34 -35 0
-36 -37 0
-36 -38 0
-36 -39 0
-36 -40 0
-36 -41 0
-36 -42 0
-37 -38 0
-37 -39 0
-37 -40 0
-37 -41 0
-37 -42 0
-38 -39 0
-38 -40 0
-38 -41 0
-38 -42 0
-39 -40 0
-39 -41 0
-39 -42 0
-40 -41 0
-40 -42 0
-41 -42 0
-43 -44 0
-43 -45 0
-43 -46 0
-43 -47 0
-43 -48 0
-43 -49 0
-44 -45 0
-44 -46 0
-44 -47 0
-44 -48 0
-44 -49 0
-45 -46 0
-45 -47 0
-45 -48 0
-45 -49 0
-46 -47 0
-46 -48 0
-46 -49 0
-47 -48 0
-47 -49 0
-48 -49 0
-50 -51 0
-50 -52 0
-50 -53 0
-50 -54 0
-50 -55 0
-50 -56 0
-51 -52 0
-51 -53 0
-51 -54 0
-51 -55 0
-51 -56 0
-52 -53 0
-52 -54 0
-52 -55 0
-52 -56 0
-53 -54 0
-53 -55 0
-53 -56 0
-54 -55 0
-54 -56 0
-55 -56 0
-57 -58 0
-57 -59 0
-57 -60 0
-57 -61 0
-57 -62 0
-57 -63 0
-58 -59 0
-58 -60 0
-58 -61 0
-58 -62 0
-58 -63 0
-59 -60 0
-59 -61 0
-59 -62 0
-59 -63 0
-60 -61 0
-60 -62 0
-60 -63 0
-61 -62 0
-61 -63 0
-62 -63 0
-64 -65 0
-64 -66 0
-64 -67 0
-64 -68 0
-64 -69 0
-64 -70 0
-65 -66 0
-65 -67 0
-65 -68 0
-65 -69 0
-65 -70 0
-66 -67 0
-66 -68 0
-66 -69 0
-66 -70 0
-67 -68 0
-67 -69 0
-67 -70 0
-68 -69 0
-68 -70 0
-69 -70 0
-71 -72 0
-71 -73 0
-71 -74 0
-71 -75 0
-71 -76 0
-71 -77 0
-72 -73 0
-72 -74 0
-72 -75 0
-72 -76 0
-72 -77 0
-73 -74 0
-73 -75 0
-73 -76 0
-73 -77 0
-74 -75 0
-74 -76 0
-74 -77 0
-75 -76 0
-75 -77 0
-76 -77 0
-78 -79 0
-78 -80 0
-78 -81 0
-78 -82 0
-78 -83 0
-78 -84 0
-79 -80 0
-79 -81 0
-79 -82 0
-79 -83 0
-79 -84 0
-80 -81 0
-80 -82 0
-80 -83 0
-80 -84 0
-81 -82 0
-81 -83 0
-81 -84 0
-82 -83 0
-82 -84 0
-83 -84 0
-85 -86 0
-85 -87 0
-85 -88 0
-85 -89 0
-85 -90 0
-85 -91 0
-86 -87 0
-86 -88 0
-86 -89 0
-86 -90 0
-86 -91 0
-87 -88 0
-87 -89 0
-87 -90 0
-87 -91 0
-88 -89 0
-88 -90 0
-88 -91 0
-89 -90 0
-89 -91 0
-90 -91 0
-92 -93 0
-92 -94 0
-92 -95 0
-92 -96 0
-92 -97 0
-92 -98 0
-93 -94 0
-93 -95 0
-93 -96 0
-93 -97 0
-93 -98 0
-94 -95 0
-94 -96 0
-94 -97 0
-94 -98 0
-95 -96 0
-95 -97 0
-95 -98 0
-96 -97 0
-96 -98 0
-97 -98 0
-99 -100 0
-99 -101 0
-99 -102 0
-99 -103 0
-99 -104 0
-99 -105 0
-100 -101 0
-100 -102 0
-100 -103 0
-100 -104 0
-100 -105 0
-101 -102 0
-101 -103 0
-101 -104 0
-101 -105 0
-102 -103 0
-102 -104 0
-102 -105 0
-103 -104 0
-103 -105 0
-104 -105 0
-106 -107 0
-106 -108 0
-106 -109 0
-106 -110 0
-106 -111 0
-106 -112 0
-107 -108 0
-107 -109 0
-107 -110 0
-107 -111 0
-107 -112 0
-108 -109 0
-108 -110 0
-108 -111 0
-108 -112 0
-109 -110 0
-109 -111 0
-109 -112 0
-110 -111 0
-110 -112 0
-111 -112 0
-113 -114 0
-113 -115 0
-113 -116 0
-113 -117 0
-113 -118 0
-113 -119 0
-114 -115 0
-114 -116 0
-114 -117 0
-114 -118 0
-114 -119 0
-115 -116 0
-115 -117 0
-115 -118 0
-115 -119 0
-116 -117 0
-116 -118 0
-116 -119 0
-117 -118 0
-117 -119 0
-118 -119 0
-120 -121 0
-120 -122 0
-120 -123 0
-120 -124 0
-120 -125 0
-120 -126 0
-121 -122 0
-121 -123 0
-121 -124 0
-121 -125 0
-121 -126 0
-122 -123 0
-122 -124 0
-122 -125 0
-122 -126 0
-123 -124 0
-123 -125 0
-123 -126 0
-124 -125 0
-124 -126 0
-125 -126 0
-127 -128 0
-127 -129 0
-127 -130 0
-127 -131 0
-127 -132 0
-127 -133 0
-128 -129 0
-128 -130 0
-128 -131 0
-128 -132 0
-128 -133 0
-129 -130 0
-129 -131 0
-129 -132 0
-129 -133 0
-130 -131 0
-130 -132 0
-130 -133 0
-131 -132 0
-131 -133 0
-132 -133 0
-134 -135 0
-134 -136 0
-134 -137 0
-134 -138 0
-134 -139 0
-134 -140 0
-135 -136 0
-135 -137 0
-135 -138 0
-135 -139 0
-135 -140 0
-136 -137 0
-136 -138 0
-136 -139 0
-136 -140 0
-137 -138 0
-137 -139 0
-137 -140 0
-138 -139 0
-138 -140 0
-139 -140 0
-141 -142 0
-141 -143 0
-141 -144 0
-141 -145 0
-141 -146 0
-141 -147 0
-142 -143 0
-142 -144 0
-142 -145 0
-142 -146 0
-142 -147 0
-143 -144 0
-143 -145 0
-143 -146 0
-143 -147 0
-144 -145 0
-144 -146 0
-144 -147 0
-145 -146 0
-145 -147 0
-146 -147 0
-148 -149 0
-148 -150 0
-148 -151 0
-148 -152 0
-148 -153 0
-148 -154 0
-149 -150 0
-149 -151 0
-149 -152 0
-149 -153 0
-149 -154 0
-150 -151 0
-150 -152 0
-150 -153 0
-150 -154 0
-151 -152 0
-151 -153 0
-151 -154 0
-152 -153 0
-152 -154 0
-153 -154 0
-155 -156 0
-155 -157 0
-155 -158 0
-155 -159 0
-155 -160 0
-155 -161 0
-156 -157 0
-156 -158 0
-156 -159 0
-156 -160 0
-156 -161 0
-157 -158 0
-157 -159 0
-157 -160 0
-157 -161 0
-158 -159 0
-158 -160 0
-158 -161 0
-159 -160 0
-159 -161 0
-160 -161 0
-162 -163 0
-162 -164 0
-162 -165 0
-162 -166 0
-162 -167 0
-162 -168 0
-163 -164 0
-163 -165 0
-163 -166 0
-163 -167 0
-163 -168 0
-164 -165 0
-164 -166 0
-164 -167 0
-164 -168 0
-165 -166 0
-165 -167 0
-165 -168 0
-166 -167 0
-166 -168 0
-167 -168 0
-169 -170 0
-169 -171 0
-169 -172 0
-169 -173 0
-169 -174 0
-169 -175 0
-170 -171 0
-170 -172 0
-170 -173 0
-170 -174 0
-170 -175 0
-171 -172 0
-171 -173 0
-171 -174 0
-171 -175 0
-172 -173 0
-172 -174 0
-172 -175 0
-173 -174 0
-173 -175 0
-174 -175 0
-176 -177 0
-176 -178 0
-176 -179 0
-176 -180 0
-176 -181 0
-176 -182 0
-177 -178 0
-177 -179 0
-177 -180 0
-177 -181 0
-177 -182 0
-178 -179 0
-178 -180 0
-178 -181 0
-178 -182 0
-179 -180 0
-179 -181 0
-179 -182 0
-180 -181 0
-180 -182 0
-181 -182 0
-183 -184 0
-183 -185 0
-183 -186 0
-183 -187 0
-183 -188 0
-183 -189 0
-184 -185 0
-184 -186 0
-184 -187 0
-184 -188 0
-184 -189 0
-185 -186 0
-185 -187 0
-185 -188 0
-185 -189 0
-186 -187 0
-186 -188 0
-186 -189 0
-187 -188 0
-187 -189 0
-188 -189 0
-190 -191 0
-190 -192 0
-190 -193 0
-190 -194 0
-190 -195 0
-190 -196 0
-191 -192 0
-191 -193 0
-191 -194 0
-191 -195 0
-191 -196 0
-192 -193 0
-192 -194 0
-192 -195 0
-192 -196 0
-193 -194 0
-193 -195 0
-193 -196 0
-194 -195 0
-194 -196 0
-195 -196 0
-197 -198 0
-197 -199 0
-197 -200 0
-197 -201 0
-197 -202 0
-197 -203 0
-198 -199 0
-198 -200 0
-198 -201 0
-198 -202 0
-198 -203 0
-199 -200 0
-199 -201 0
-199 -202 0
-199 -203 0
-200 -201 0
-200 -202 0
-200 -203 0
-201 -202 0
-201 -203 0
-202 -203 0
-204 -205 0
-204 -206 0
-204 -207 0
-204 -208 0
-204 -209 0
-204 -210 0
-205 -206 0
-205 -207 0
-205 -208 0
-205 -209 0
-205 -210 0
-206 -207 0
-206 -208 0
-206 -209 0
-206 -210 0
-207 -208 0
-207 -209 0
-207 -210 0
-208 -209 0
-208 -210 0
-209 -210 0
-211 -212 0
-211 -213 0
-211 -214 0
-211 -215 0
-211 -216 0
-211 -217 0
-212 -213 0
-212 -214 0
-212 -215 0
-212 -216 0
-212 -217 0
-213 -214 0
-213 -215 0
-213 -216 0
-213 -217 0
-214 -215 0
-214 -216 0
-214 -217 0
-215 -216 0
-215 -217 0
-216 -217 0
-218 -219 0
-218 -220 0
-218 -221 0
-218 -222 0
-218 -223 0
-218 -224 0
-219 -220 0
-219 -221 0
-219 -222 0
-219 -223 0
-219 -224 0
-220 -221 0
-220 -222 0
-220 -223 0
-220 -224 0
-221 -222 0
-221 -223 0
-221 -224 0
-222 -223 0
-222 -224 0
-223 -224 0
-225 -226 0
-225 -227 0
-225 -228 0
-225 -229 0
-225 -230 0
-225 -231 0
-226 -227 0
-226 -228 0
-226 -229 0
-226 -230 0
-226 -231 0
-227 -228 0
-227 -229 0
-227 -230 0
-227 -231 0
-228 -229 0
-228 -230 0
-228 -231 0
-229 -230 0
-229 -231 0
-230 -231 0
-232 -233 0
-232 -234 0
-232 -235 0
-232 -236 0
-232 -237 0
-232 -238 0
-233 -234 0
-233 -235 0
-233 -236 0
-233 -237 0
-233 -238 0
-234 -235 0
-234 -236 0
-234 -237 0
-234 -238 0
-235 -236 0
-235 -237 0
-235 -238 0
-236 -237 0
-236 -238 0
-237 -238 0
-239 -240 0
-239 -241 0
-239 -242 0
-239 -243 0
-239 -244 0
-239 -245 0
-240 -241 0
-240 -242 0
-240 -243 0
-240 -244 0
-240 -245 0
-241 -242 0
-241 -243 0
-241 -244 0
-241 -245 0
-242 -243 0
-242 -244 0
-242 -245 0
-243 -244 0
-243 -245 0
-244 -245 0
-7 -37 0
-6 -39 0
-4 -42 0
-5 -39 0
-7 -36 0
-6 -36 0
-3 -40 0
-2 -42 0
-1 -36 0
-5 -36 0
-1 -41 0
-5 -37 0
-5 -38 0
-6 -38 0
-4 -40 0
-4 -37 0
-2 -40 0
-2 -36 0
-4 -41 0
-2 -41 0
-7 -38 0
-6 -37 0
-1 -42 0
-2 -39 0
-2 -37 0
-6 -40 0
-6 -42 0
-1 -39 0
-7 -40 0
-5 -42 0
-5 -40 0
-7 -42 0
-4 -39 0
-3 -42 0
-6 -41 0
-7 -41 0
-3 -36 0
-3 -38 0
-5 -41 0
-1 -40 0
-2 -38 0
-1 -38 0
-3 -39 0
-4 -36 0
-3 -73 0
-5 -77 0
-7 -76 0
-2 -72 0
-4 -77 0
-3 -77 0
-4 -76 0
-1 -72 0
-1 -77 0
-4 -72 0
-2 -74 0
-4 -71 0
-2 -76 0
-2 -75 0
-6 -71 0
-3 -72 0
-3 -76 0
-5 -74 0
-1 -71 0
-1 -73 0
-6 -75 0
-5 -75 0
-7 -73 0
-5 -72 0
-3 -74 0
-6 -74 0
-7 -77 0
-6 -76 0
-2 -77 0
-6 -72 0
-1 -76 0
-1 -74 0
-4 -75 0
-7 -72 0
-2 -73 0
-1 -75 0
-3 -75 0
-5 -76 0
-4 -74 0
-7 -75 0
-2 -71 0
-3 -71 0
-6 -73 0
-7 -74 0
-1 -130 0
-5 -132 0
-4 -128 0
-7 -129 0
-4 -132 0
-1 -131 0
-3 -133 0
-7 -133 0
-4 -130 0
-2 -130 0
-2 -127 0
-6 -127 0
-4 -133 0
-1 -128 0
-6 -128 0
-7 -132 0
-4 -127 0
-6 -129 0
-1 -133 0
-2 -131 0
-2 -133 0
-7 -131 0
-5 -129 0
-2 -132 0
-4 -131 0
-6 -130 0
-5 -128 0
-3 -130 0
-3 -127 0
-2 -129 0
-5 -130 0
-5 -131 0
-5 -133 0
-3 -132 0
-3 -128 0
-4 -129 0
-7 -127 0
-2 -128 0
-3 -129 0
-5 -127 0
-3 -131 0
-1 -129 0
-1 -132 0
-6 -132 0
-3 -230 0
-5 -226 0
-1 -231 0
-4 -229 0
-4 -231 0
-6 -225 0
-5 -228 0
-1 -230 0
-2 -230 0
-1 -229 0
-6 -227 0
-2 -227 0
-6 -230 0
-7 -228 0
-2 -231 0
-7 -227 0
-1 -228 0
-4 -225 0
-1 -225 0
-5 -227 0
-3 -227 0
-3 -231 0
-2 -228 0
-5 -229 0
-2 -226 0
-2 -229 0
-4 -228 0
-6 -228 0
-2 -225 0
-5 -230 0
-6 -231 0
-3 -225 0
-3 -229 0
-7 -230 0
-5 -225 0
-7 -226 0
-7 -231 0
-4 -230 0
-4 -227 0
-1 -226 0
-6 -226 0
-7 -225 0
-5 -231 0
-3 -226 0
-12 -24 0
-13 -28 0
-11 -23 0
-8 -23 0
-12 -26 0
-11 -22 0
-8 -24 0
-13 -23 0
-14 -26 0
-10 -25 0
-9 -23 0
-14 -24 0
-10 -27 0
-14 -22 0
-8 -25 0
-9 -27 0
-11 -25 0
-13 -25 0
-14 -23 0
-8 -28 0
-12 -23 0
-14 -28 0
-9 -22 0
-13 -26 0
-10 -28 0
-12 -28 0
-11 -26 0
-10 -24 0
-10 -23 0
-13 -24 0
-13 -22 0
-10 -22 0
-9 -28 0
-8 -26 0
-9 -26 0
-14 -25 0
-10 -26 0
-13 -27 0
-8 -27 0
-11 -27 0
-8 -22 0
-9 -24 0
-11 -24 0
-9 -25 0
-13 -121 0
-14 -121 0
-12 -123 0
-8 -122 0
-11 -125 0
-11 -122 0
-12 -124 0
-10 -120 0
-12 -126 0
-9 -122 0
-12 -120 0
-8 -123 0
-13 -120 0
-10 -124 0
-10 -122 0
-13 -123 0
-14 -123 0
-12 -121 0
-8 -125 0
-13 -126 0
-8 -121 0
-9 -125 0
-9 -120 0
-10 -121 0
-11 -120 0
-14 -126 0
-14 -120 0
-8 -124 0
-13 -122 0
-9 -121 0
-8 -120 0
-11 -121 0
-11 -126 0
-10 -126 0
-11 -123 0
-9 -126 0
-14 -125 0
-11 -124 0
-9 -124 0
-13 -125 0
-10 -123 0
-12 -125 0
-14 -122 0
-14 -124 0
-8 -142 0
-11 -146 0
-10 -142 0
-14 -144 0
-14 -141 0
-9 -141 0
-12 -144 0
-13 -146 0
-9 -144 0
-10 -146 0
-13 -144 0
-12 -142 0
-8 -141 0
-10 -143 0
-13 -145 0
-9 -145 0
-14 -142 0
-10 -147 0
-12 -141 0
-8 -145 0
-14 -143 0
-11 -143 0
-8 -147 0
-13 -143 0
-8 -144 0
-11 -141 0
-11 -147 0
-12 -146 0
-14 -145 0
-11 -144 0
-14 -146 0
-11 -142 0
-8 -143 0
-13 -142 0
-9 -143 0
-8 -146 0
-11 -145 0
-13 -147 0
-12 -143 0
-9 -147 0
-12 -147 0
-10 -145 0
-13 -141 0
-10 -141 0
-8 -150 0
-11 -149 0
-11 -152 0
-9 -149 0
-12 -151 0
-12 -154 0
-12 -153 0
-10 -151 0
-8 -148 0
-14 -151 0
-8 -154 0
-10 -152 0
-13 -151 0
-13 -148 0
-14 -150 0
-13 -149 0
-10 -153 0
-12 -149 0
-8 -152 0
-14 -149 0
-10 -154 0
-13 -150 0
-8 -149 0
-13 -154 0
-10 -148 0
-11 -148 0
-14 -148 0
-11 -151 0
-12 -152 0
-14 -154 0
-11 -153 0
-10 -150 0
-8 -153 0
-9 -148 0
-14 -153 0
-8 -151 0
-14 -152 0
-9 -153 0
-12 -148 0
-10 -149 0
-13 -153 0
-12 -150 0
-11 -154 0
-9 -152 0
-17 -63 0
-20 -59 0
-16 -57 0
-21 -59 0
-16 -63 0
-21 -63 0
-19 -61 0
-16 -58 0
-21 -57 0
-19 -58 0
-18 -62 0
-21 -58 0
-18 -59 0
-15 -59 0
-16 -59 0
-21 -60 0
-17 -58 0
-17 -61 0
-17 -59 0
-15 -58 0
-17 -60 0
-18 -61 0
-15 -62 0
-19 -62 0
-21 -62 0
-19 -63 0
-19 -57 0
-20 -61 0
-18 -58 0
-19 -60 0
-18 -60 0
-16 -62 0
-16 -61 0
-15 -57 0
-15 -61 0
-20 -60 0
-20 -62 0
-15 -63 0
-18 -57 0
-20 -63 0
-20 -58 0
-15 -60 0
-18 -63 0
-20 -57 0
-20 -94 0
-19 -94 0
-17 -98 0
-20 -95 0
-19 -95 0
-16 -94 0
-18 -94 0
-17 -95 0
-21 -92 0
-19 -97 0
-19 -92 0
-16 -97 0
-15 -97 0
-18 -95 0
-16 -96 0
-17 -92 0
-18 -92 0
-16 -92 0
-17 -96 0
-21 -96 0
-20 -92 0
-21 -94 0
-21 -93 0
-20 -93 0
-15 -98 0
-20 -96 0
-21 -95 0
-18 -96 0
-19 -93 0
-15 -94 0
-21 -98 0
-17 -97 0
-19 -98 0
-20 -98 0
-18 -93 0
-18 -98 0
-15 -93 0
-16 -98 0
-15 -96 0
-19 -96 0
-18 -97 0
-17 -93 0
-15 -95 0
-15 -92 0
-18 -115 0
-17 -117 0
-18 -114 0
-17 -118 0
-17 -115 0
-19 -115 0
-16 -114 0
-17 -119 0
-18 -119 0
-15 -117 0
-16 -116 0
-19 -119 0
-20 -114 0
-20 -117 0
-17 -113 0
-20 -113 0
-21 -119 0
-20 -116 0
-15 -114 0
-19 -116 0
-19 -117 0
-15 -116 0
-15 -113 0
-16 -115 0
-21 -117 0
-21 -115 0
-16 -113 0
-15 -118 0
-20 -118 0
-20 -115 0
-18 -116 0
-21 -114 0
-20 -119 0
-19 -118 0
-17 -114 0
-16 -118 0
-17 -116 0
-16 -119 0
-21 -118 0
-18 -113 0
-21 -116 0
-15 -119 0
-19 -114 0
-21 -113 0
-26 -192 0
-25 -191 0
-22 -193 0
-23 -191 0
-23 -193 0
-22 -195 0
-23 -196 0
-22 -190 0
-22 -191 0
-25 -194 0
-27 -192 0
-25 -193 0
-28 -196 0
-27 -191 0
-27 -194 0
-28 -191 0
-27 -195 0
-28 -193 0
-25 -190 0
-22 -194 0
-24 -192 0
-23 -190 0
-25 -195 0
-27 -196 0
-28 -195 0
-24 -194 0
-26 -191 0
-27 -190 0
-28 -192 0
-23 -194 0
-26 -195 0
-24 -196 0
-24 -191 0
-24 -190 0
-24 -195 0
-23 -195 0
-23 -192 0
-25 -196 0
-24 -193 0
-27 -193 0
-28 -194 0
-26 -196 0
-22 -192 0
-26 -194 0
-25 -214 0
-24 -214 0
-25 -213 0
-27 -211 0
-25 -211 0
-28 -215 0
-24 -212 0
-24 -216 0
-27 -215 0
-23 -213 0
-23 -211 0
-23 -214 0
-24 -211 0
-25 -217 0
-28 -213 0
-22 -213 0
-27 -214 0
-22 -211 0
-24 -213 0
-27 -213 0
-22 -217 0
-22 -216 0
-22 -215 0
-25 -216 0
-24 -215 0
-24 -217 0
-28 -211 0
-23 -217 0
-22 -212 0
-27 -217 0
-22 -214 0
-23 -212 0
-27 -216 0
-27 -212 0
-25 -215 0
-26 -214 0
-26 -217 0
-26 -215 0
-28 -212 0
-28 -214 0
-28 -217 0
-25 -212 0
-28 -216 0
-23 -216 0
-24 -245 0
-22 -243 0
-27 -242 0
-25 -239 0
-25 -241 0
-25 -240 0
-22 -244 0
-23 -245 0
-27 -245 0
-27 -240 0
-23 -244 0
-23 -239 0
-25 -244 0
-24 -239 0
-28 -244 0
-22 -245 0
-26 -242 0
-27 -239 0
-27 -244 0
-26 -245 0
-23 -241 0
-26 -239 0
-22 -241 0
-25 -245 0
-28 -239 0
-23 -243 0
-22 -239 0
-25 -242 0
-24 -244 0
-28 -240 0
-22 -240 0
-28 -245 0
-24 -241 0
-24 -240 0
-26 -241 0
-24 -242 0
-24 -243 0
-23 -242 0
-28 -243 0
-26 -240 0
-22 -242 0
-26 -243 0
-25 -243 0
-27 -241 0
-34 -107 0
-30 -106 0
-33 -112 0
-34 -111 0
-30 -110 0
-31 -110 0
-35 -110 0
-31 -109 0
-33 -110 0
-31 -112 0
-30 -111 0
-34 -110 0
-35 -111 0
-33 -106 0
-34 -112 0
-35 -106 0
-35 -107 0
-30 -107 0
-32 -106 0
-30 -109 0
-32 -112 0
-31 -108 0
-31 -107 0
-29 -111 0
-34 -106 0
-34 -109 0
-30 -108 0
-29 -109 0
-31 -111 0
-29 -112 0
-29 -108 0
-32 -108 0
-31 -106 0
-29 -106 0
-35 -112 0
-32 -110 0
-30 -112 0
-29 -110 0
-35 -108 0
-32 -111 0
-33 -108 0
-33 -111 0
-29 -107 0
-34 -108 0
-29 -143 0
-32 -146 0
-35 -141 0
-33 -145 0
-31 -147 0
-31 -142 0
-31 -145 0
-33 -147 0
-32 -143 0
-33 -143 0
-32 -141 0
-34 -144 0
-34 -146 0
-30 -145 0
-32 -145 0
-30 -144 0
-30 -143 0
-29 -144 0
-31 -144 0
-29 -146 0
-35 -143 0
-30 -142 0
-32 -142 0
-29 -141 0
-33 -142 0
-35 -147 0
-35 -145 0
-33 -144 0
-34 -141 0
-31 -146 0
-35 -146 0
-34 -142 0
-34 -145 0
-30 -141 0
-34 -143 0
-35 -144 0
-35 -142 0
-29 -145 0
-33 -141 0
-29 -147 0
-31 -141 0
-31 -143 0
-30 -147 0
-29 -142 0
-33 -180 0
-30 -181 0
-31 -178 0
-32 -177 0
-30 -178 0
-32 -179 0
-34 -182 0
-31 -177 0
-33 -179 0
-31 -176 0
-33 -177 0
-35 -176 0
-34 -177 0
-32 -178 0
-35 -180 0
-29 -176 0
-32 -181 0
-35 -178 0
-35 -181 0
-31 -180 0
-29 -181 0
-32 -176 0
-32 -182 0
-30 -179 0
-29 -177 0
-35 -179 0
-34 -176 0
-29 -182 0
-30 -180 0
-35 -177 0
-33 -178 0
-31 -182 0
-29 -179 0
-29 -180 0
-30 -176 0
-34 -181 0
-33 -182 0
-33 -176 0
-34 -178 0
-35 -182 0
-32 -180 0
-34 -179 0
-31 -181 0
-30 -177 0
-38 -201 0
-36 -198 0
-39 -198 0
-40 -200 0
-36 -203 0
-40 -201 0
-36 -200 0
-37 -201 0
-36 -199 0
-39 -203 0
-40 -199 0
-37 -203 0
-41 -200 0
-38 -200 0
-38 -203 0
-39 -199 0
-41 -197 0
-42 -200 0
-41 -201 0
-36 -201 0
-37 -197 0
-39 -200 0
-42 -199 0
-41 -199 0
-40 -198 0
-37 -199 0
-38 -197 0
-40 -197 0
-39 -197 0
-42 -197 0
-42 -198 0
-42 -203 0
-42 -202 0
-36 -197 0
-41 -203 0
-41 -198 0
-37 -198 0
-41 -202 0
-40 -203 0
-36 -202 0
-42 -201 0
-38 -198 0
-39 -202 0
-37 -202 0
-38 -223 0
-38 -222 0
-41 -219 0
-37 -220 0
-37 -223 0
-39 -224 0
-42 -219 0
-41 -221 0
-39 -218 0
-36 -220 0
-39 -222 0
-36 -222 0
-42 -223 0
-39 -220 0
-37 -224 0
-41 -224 0
-36 -221 0
-42 -220 0
-37 -221 0
-36 -223 0
-39 -221 0
-41 -223 0
-40 -218 0
-36 -218 0
-42 -224 0
-38 -221 0
-41 -220 0
-39 -219 0
-41 -222 0
-36 -219 0
-38 -218 0
-40 -223 0
-38 -224 0
-37 -218 0
-38 -220 0
-42 -221 0
-42 -218 0
-39 -223 0
-36 -224 0
-40 -219 0
-37 -219 0
-40 -224 0
-40 -222 0
-41 -218 0
-41 -240 0
-42 -242 0
-36 -239 0
-41 -239 0
-41 -242 0
-37 -243 0
-42 -245 0
-40 -239 0
-39 -244 0
-38 -244 0
-42 -240 0
-40 -242 0
-39 -239 0
-40 -240 0
-39 -242 0
-36 -241 0
-37 -241 0
-40 -241 0
-39 -245 0
-38 -239 0
-38 -243 0
-36 -242 0
-41 -245 0
-42 -243 0
-40 -244 0
-39 -240 0
-38 -240 0
-37 -240 0
-41 -241 0
-36 -240 0
-38 -245 0
-38 -242 0
-38 -241 0
-42 -239 0
-42 -241 0
-37 -244 0
-37 -242 0
-36 -244 0
-42 -244 0
-36 -243 0
-41 -244 0
-37 -239 0
-40 -243 0
-39 -241 0
-46 -144 0
-49 -144 0
-46 -141 0
-45 -142 0
-43 -142 0
-44 -145 0
-46 -142 0
-45 -144 0
-44 -143 0
-49 -143 0
-49 -145 0
-45 -141 0
-49 -146 0
-43 -143 0
-48 -146 0
-47 -144 0
-45 -146 0
-47 -142 0
-49 -141 0
-47 -146 0
-45 -143 0
-48 -145 0
-47 -143 0
-44 -142 0
-43 -146 0
-43 -144 0
-44 -144 0
-47 -141 0
-46 -147 0
-44 -146 0
-47 -145 0
-43 -145 0
-48 -143 0
-46 -143 0
-48 -142 0
-45 -145 0
-48 -147 0
-43 -141 0
-47 -147 0
-48 -144 0
-45 -147 0
-44 -141 0
-44 -147 0
-43 -147 0
-51 -70 0
-52 -68 0
-51 -66 0
-51 -67 0
-50 -68 0
-50 -64 0
-53 -64 0
-50 -66 0
-56 -68 0
-54 -70 0
-52 -65 0
-56 -66 0
-55 -64 0
-50 -65 0
-54 -64 0
-56 -64 0
-50 -70 0
-53 -69 0
-51 -69 0
-54 -69 0
-56 -67 0
-56 -69 0
-52 -66 0
-52 -64 0
-54 -68 0
-53 -67 0
-54 -66 0
-56 -65 0
-55 -67 0
-53 -66 0
-55 -70 0
-50 -69 0
-54 -67 0
-55 -68 0
-50 -67 0
-55 -69 0
-51 -64 0
-56 -70 0
-52 -70 0
-55 -66 0
-52 -69 0
-53 -68 0
-52 -67 0
-53 -65 0
-52 -111 0
-55 -109 0
-50 -110 0
-53 -107 0
-55 -108 0
-50 -106 0
-53 -109 0
-54 -111 0
-56 -110 0
-50 -107 0
-54 -106 0
-51 -112 0
-56 -106 0
-50 -112 0
-53 -106 0
-56 -107 0
-50 -109 0
-55 -106 0
-51 -108 0
-51 -106 0
-55 -110 0
-56 -112 0
-53 -108 0
-56 -108 0
-54 -109 0
-52 -108 0
-51 -110 0
-52 -109 0
-55 -107 0
-54 -108 0
-52 -106 0
-52 -110 0
-50 -108 0
-52 -112 0
-51 -109 0
-55 -111 0
-51 -107 0
-53 -111 0
-51 -111 0
-54 -110 0
-50 -111 0
-54 -107 0
-55 -112 0
-54 -112 0
-58 -77 0
-63 -76 0
-60 -73 0
-58 -73 0
-63 -74 0
-57 -76 0
-60 -71 0
-59 -73 0
-61 -74 0
-63 -75 0
-62 -71 0
-61 -72 0
-62 -75 0
-62 -74 0
-63 -73 0
-59 -76 0
-60 -77 0
-57 -75 0
-62 -73 0
-60 -75 0
-61 -71 0
-59 -75 0
-59 -72 0
-57 -72 0
-61 -76 0
-59 -74 0
-63 -72 0
-58 -76 0
-58 -71 0
-62 -76 0
-60 -72 0
-63 -77 0
-58 -74 0
-62 -72 0
-63 -71 0
-57 -71 0
-60 -76 0
-59 -71 0
-58 -72 0
-62 -77 0
-57 -74 0
-57 -73 0
-61 -73 0
-57 -77 0
-69 -76 0
-67 -72 0
-68 -77 0
-67 -71 0
-69 -71 0
-68 -74 0
-65 -71 0
-68 -71 0
-65 -77 0
-68 -76 0
-66 -75 0
-69 -77 0
-70 -71 0
-68 -75 0
-67 -73 0
-69 -72 0
-64 -71 0
-70 -74 0
-67 -77 0
-67 -74 0
-64 -72 0
-69 -73 0
-66 -76 0
-67 -76 0
-69 -75 0
-66 -77 0
-68 -72 0
-70 -77 0
-66 -73 0
-64 -74 0
-66 -71 0
-66 -72 0
-66 -74 0
-70 -76 0
-65 -74 0
-64 -73 0
-65 -75 0
-70 -72 0
-64 -75 0
-65 -73 0
-67 -75 0
-69 -74 0
-70 -73 0
-65 -72 0
-67 -84 0
-67 -79 0
-65 -81 0
-64 -84 0
-70 -79 0
-66 -83 0
-64 -81 0
-65 -79 0
-65 -78 0
-66 -79 0
-66 -82 0
-64 -83 0
-64 -82 0
-68 -80 0
-67 -83 0
-70 -84 0
-69 -79 0
-65 -83 0
-66 -84 0
-70 -83 0
-70 -82 0
-67 -78 0
-68 -82 0
-67 -80 0
-66 -78 0
-70 -80 0
-69 -84 0
-65 -84 0
-69 -82 0
-69 -78 0
-69 -80 0
-65 -82 0
-68 -78 0
-67 -81 0
-67 -82 0
-70 -81 0
-65 -80 0
-68 -81 0
-64 -79 0
-68 -83 0
-66 -80 0
-64 -78 0
-68 -79 0
-69 -81 0
-67 -211 0
-65 -215 0
-68 -213 0
-70 -217 0
-68 -217 0
-64 -217 0
-69 -211 0
-67 -215 0
-68 -216 0
-65 -213 0
-68 -212 0
-66 -211 0
-70 -215 0
-68 -214 0
-65 -211 0
-69 -213 0
-64 -216 0
-66 -216 0
-70 -214 0
-64 -215 0
-67 -216 0
-69 -215 0
-69 -212 0
-70 -213 0
-68 -215 0
-64 -213 0
-67 -212 0
-70 -212 0
-67 -217 0
-66 -217 0
-65 -216 0
-69 -214 0
-67 -214 0
-64 -211 0
-66 -212 0
-69 -216 0
-64 -212 0
-66 -213 0
-67 -213 0
-70 -216 0
-65 -214 0
-69 -217 0
-68 -211 0
-70 -211 0
-65 -224 0
-70 -219 0
-70 -224 0
-70 -218 0
-69 -218 0
-66 -219 0
-68 -223 0
-69 -219 0
-67 -220 0
-66 -221 0
-69 -222 0
-64 -222 0
-65 -222 0
-70 -220 0
-69 -224 0
-64 -224 0
-66 -220 0
-67 -221 0
-69 -220 0
-66 -218 0
-65 -218 0
-67 -219 0
-67 -224 0
-65 -221 0
-65 -220 0
-70 -223 0
-64 -223 0
-64 -219 0
-64 -218 0
-68 -218 0
-68 -220 0
-65 -223 0
-64 -221 0
-67 -218 0
-67 -223 0
-66 -223 0
-68 -219 0
-68 -221 0
-70 -221 0
-70 -222 0
-67 -222 0
-65 -219 0
-66 -224 0
-64 -220 0
-84 -162 0
-82 -168 0
-79 -167 0
-79 -166 0
-80 -165 0
-80 -167 0
-78 -165 0
-82 -162 0
-83 -162 0
-84 -166 0
-78 -162 0
-80 -168 0
-82 -167 0
-80 -163 0
-83 -168 0
-84 -163 0
-78 -164 0
-78 -168 0
-84 -168 0
-83 -166 0
-80 -166 0
-81 -165 0
-78 -163 0
-83 -163 0
-81 -164 0
-82 -165 0
-78 -167 0
-83 -164 0
-82 -163 0
-84 -165 0
-80 -162 0
-79 -163 0
-81 -166 0
-81 -168 0
-81 -163 0
-79 -165 0
-82 -164 0
-79 -164 0
-83 -165 0
-81 -162 0
-83 -167 0
-84 -164 0
-82 -166 0
-78 -166 0
-93 -108 0
-96 -106 0
-93 -112 0
-98 -108 0
-95 -110 0
-98 -106 0
-94 -110 0
-98 -111 0
-93 -107 0
-92 -106 0
-93 -106 0
-95 -108 0
-97 -110 0
-97 -111 0
-95 -106 0
-94 -108 0
-97 -107 0
-93 -109 0
-95 -107 0
-93 -111 0
-94 -112 0
-94 -111 0
-96 -112 0
-97 -108 0
-96 -108 0
-92 -109 0
-98 -109 0
-93 -110 0
-98 -110 0
-95 -109 0
-98 -112 0
-97 -106 0
-97 -112 0
-98 -107 0
-95 -112 0
-94 -107 0
-97 -109 0
-92 -112 0
-94 -106 0
-92 -110 0
-96 -107 0
-92 -111 0
-92 -108 0
-96 -110 0
-97 -190 0
-96 -194 0
-97 -192 0
-95 -190 0
-97 -191 0
-96 -191 0
-97 -193 0
-92 -190 0
-94 -192 0
-92 -191 0
-97 -194 0
-98 -191 0
-96 -195 0
-95 -195 0
-93 -196 0
-92 -196 0
-92 -194 0
-96 -192 0
-93 -190 0
-94 -196 0
-96 -190 0
-98 -193 0
-95 -192 0
-94 -190 0
-94 -191 0
-97 -196 0
-96 -193 0
-96 -196 0
-98 -192 0
-93 -193 0
-92 -193 0
-94 -194 0
-93 -195 0
-92 -192 0
-93 -191 0
-98 -196 0
-94 -195 0
-92 -195 0
-98 -194 0
-95 -191 0
-95 -194 0
-95 -193 0
-98 -190 0
-93 -194 0
-102 -126 0
-104 -124 0
-101 -124 0
-105 -123 0
-101 -123 0
-100 -124 0
-104 -121 0
-99 -120 0
-105 -124 0
-99 -121 0
-100 -123 0
-100 -125 0
-103 -121 0
-102 -122 0
-103 -123 0
-99 -122 0
-104 -123 0
-99 -124 0
-99 -123 0
-101 -125 0
-99 -125 0
-103 -125 0
-101 -126 0
-101 -120 0
-102 -124 0
-102 -123 0
-103 -126 0
-104 -125 0
-105 -126 0
-105 -121 0
-100 -122 0
-103 -120 0
-105 -125 0
-102 -125 0
-104 -120 0
-100 -120 0
-105 -120 0
-101 -122 0
-100 -126 0
-103 -124 0
-104 -126 0
-99 -126 0
-102 -121 0
-102 -120 0
-101 -171 0
-105 -169 0
-102 -174 0
-101 -170 0
-103 -169 0
-105 -175 0
-99 -171 0
-100 -173 0
-100 -175 0
-103 -170 0
-104 -169 0
-102 -171 0
-100 -169 0
-101 -174 0
-103 -174 0
-104 -172 0
-102 -175 0
-104 -173 0
-100 -170 0
-101 -172 0
-101 -173 0
-103 -173 0
-105 -170 0
-101 -175 0
-102 -172 0
-104 -174 0
-103 -171 0
-103 -175 0
-102 -170 0
-104 -175 0
-102 -173 0
-104 -170 0
-99 -172 0
-99 -173 0
-104 -171 0
-105 -171 0
-105 -174 0
-99 -174 0
-103 -172 0
-99 -170 0
-102 -169 0
-100 -174 0
-100 -172 0
-99 -169 0
-105 -190 0
-101 -190 0
-99 -192 0
-100 -194 0
-105 -191 0
-104 -190 0
-105 -195 0
-102 -192 0
-99 -196 0
-99 -195 0
-100 -190 0
-103 -191 0
-100 -191 0
-102 -194 0
-100 -196 0
-99 -194 0
-104 -192 0
-101 -195 0
-100 -193 0
-103 -193 0
-103 -192 0
-99 -191 0
-101 -194 0
-101 -193 0
-104 -196 0
-101 -191 0
-104 -195 0
-104 -193 0
-102 -193 0
-104 -191 0
-99 -190 0
-99 -193 0
-105 -194 0
-105 -196 0
-100 -195 0
-103 -195 0
-102 -196 0
-105 -192 0
-100 -192 0
-104 -194 0
-102 -191 0
-101 -196 0
-103 -190 0
-101 -192 0
-105 -198 0
-102 -201 0
-99 -197 0
-104 -201 0
-101 -197 0
-99 -202 0
-100 -198 0
-100 -200 0
-102 -199 0
-103 -199 0
-103 -200 0
-101 -199 0
-105 -202 0
-105 -199 0
-101 -203 0
-103 -203 0
-102 -203 0
-103 -197 0
-104 -200 0
-103 -202 0
-100 -203 0
-99 -198 0
-102 -197 0
-104 -198 0
-99 -203 0
-104 -203 0
-100 -197 0
-101 -200 0
-101 -198 0
-105 -203 0
-105 -201 0
-105 -197 0
-105 -200 0
-99 -200 0
-100 -199 0
-102 -198 0
-101 -202 0
-100 -202 0
-100 -201 0
-99 -201 0
-99 -199 0
-103 -201 0
-101 -201 0
-102 -202 0
-112 -120 0
-106 -121 0
-108 -123 0
-110 -121 0
-112 -125 0
-110 -122 0
-109 -126 0
-111 -124 0
-111 -126 0
-110 -124 0
-109 -125 0
-106 -122 0
-108 -125 0
-106 -126 0
-108 -121 0
-111 -120 0
-109 -124 0
-106 -123 0
-106 -120 0
-107 -120 0
-109 -121 0
-111 -123 0
-107 -123 0
-112 -124 0
-106 -125 0
-107 -124 0
-111 -122 0
-112 -122 0
-111 -125 0
-108 -122 0
-107 -121 0
-110 -125 0
-108 -126 0
-110 -126 0
-106 -124 0
-108 -124 0
-107 -125 0
-111 -121 0
-109 -120 0
-110 -123 0
-107 -122 0
-112 -121 0
-107 -126 0
-109 -123 0
-114 -159 0
-117 -161 0
-113 -157 0
-114 -160 0
-116 -156 0
-119 -161 0
-119 -155 0
-113 -160 0
-119 -160 0
-115 -158 0
-113 -155 0
-116 -160 0
-117 -160 0
-115 -159 0
-118 -155 0
-115 -157 0
-116 -155 0
-119 -156 0
-117 -158 0
-118 -156 0
-117 -159 0
-114 -158 0
-115 -155 0
-116 -158 0
-119 -158 0
-113 -161 0
-115 -161 0
-118 -160 0
-114 -157 0
-113 -156 0
-114 -155 0
-118 -157 0
-113 -159 0
-113 -158 0
-118 -159 0
-116 -161 0
-114 -156 0
-117 -155 0
-117 -156 0
-115 -156 0
-118 -158 0
-118 -161 0
-119 -159 0
-115 -160 0
-118 -180 0
-113 -176 0
-118 -179 0
-119 -176 0
-117 -177 0
-113 -181 0
-115 -181 0
-116 -178 0
-118 -178 0
-115 -179 0
-117 -178 0
-119 -178 0
-116 -182 0
-115 -182 0
-117 -180 0
-114 -180 0
-113 -177 0
-114 -177 0
-116 -177 0
-117 -181 0
-114 -182 0
-119 -180 0
-119 -182 0
-114 -179 0
-113 -179 0
-116 -180 0
-115 -180 0
-114 -176 0
-115 -177 0
-117 -179 0
-116 -181 0
-118 -176 0
-117 -176 0
-118 -182 0
-113 -178 0
-119 -181 0
-116 -176 0
-115 -178 0
-119 -177 0
-117 -182 0
-116 -179 0
-113 -180 0
-119 -179 0
-118 -177 0
-118 -211 0
-116 -217 0
-118 -213 0
-113 -215 0
-117 -217 0
-113 -216 0
-119 -215 0
-117 -216 0
-113 -214 0
-115 -216 0
-113 -212 0
-115 -212 0
-115 -215 0
-114 -216 0
-119 -217 0
-114 -217 0
-117 -211 0
-117 -213 0
-119 -216 0
-115 -213 0
-118 -217 0
-114 -214 0
-116 -211 0
-119 -214 0
-119 -212 0
-117 -212 0
-115 -217 0
-118 -214 0
-118 -215 0
-114 -212 0
-118 -216 0
-113 -213 0
-113 -211 0
-119 -211 0
-117 -214 0
-114 -215 0
-119 -213 0
-116 -213 0
-116 -212 0
-113 -217 0
-117 -215 0
-118 -212 0
-114 -213 0
-115 -211 0
-126 -175 0
-121 -172 0
-125 -172 0
-126 -173 0
-123 -171 0
-126 -172 0
-122 -173 0
-121 -173 0
-121 -170 0
-122 -174 0
-124 -172 0
-122 -172 0
-126 -171 0
-125 -175 0
-122 -175 0
-124 -174 0
-123 -174 0
-125 -169 0
-124 -175 0
-123 -173 0
-125 -171 0
-125 -173 0
-125 -170 0
-121 -174 0
-123 -175 0
-120 -173 0
-126 -169 0
-120 -169 0
-122 -170 0
-121 -171 0
-121 -169 0
-126 -174 0
-123 -169 0
-125 -174 0
-120 -171 0
-123 -170 0
-120 -175 0
-124 -171 0
-120 -170 0
-126 -170 0
-124 -173 0
-120 -172 0
-124 -170 0
-122 -169 0
-125 -216 0
-125 -214 0
-123 -212 0
-122 -215 0
-121 -212 0
-122 -211 0
-120 -212 0
-121 -216 0
-122 -217 0
-123 -213 0
-125 -215 0
-122 -216 0
-123 -217 0
-124 -217 0
-121 -214 0
-126 -214 0
-124 -215 0
-124 -216 0
-120 -213 0
-121 -217 0
-122 -212 0
-123 -215 0
-126 -211 0
-126 -215 0
-120 -216 0
-123 -211 0
-126 -212 0
-123 -216 0
-121 -213 0
-126 -213 0
-124 -213 0
-124 -211 0
-120 -215 0
-120 -211 0
-121 -211 0
-124 -212 0
-120 -217 0
-125 -213 0
-126 -216 0
-125 -212 0
-125 -211 0
-122 -213 0
-121 -215 0
-126 -217 0
-124 -231 0
-124 -225 0
-121 -229 0
-123 -226 0
-120 -227 0
-126 -228 0
-123 -227 0
-126 -229 0
-123 -231 0
-122 -227 0
-126 -230 0
-124 -228 0
-120 -230 0
-120 -231 0
-125 -228 0
-126 -231 0
-125 -227 0
-121 -225 0
-123 -225 0
-126 -225 0
-122 -230 0
-125 -229 0
-120 -225 0
-126 -227 0
-121 -227 0
-125 -230 0
-124 -226 0
-125 -225 0
-126 -226 0
-120 -226 0
-122 -225 0
-120 -229 0
-121 -231 0
-122 -226 0
-123 -230 0
-124 -227 0
-122 -231 0
-125 -226 0
-121 -230 0
-123 -228 0
-122 -229 0
-122 -228 0
-123 -229 0
-121 -226 0
-132 -221 0
-133 -221 0
-132 -223 0
-133 -218 0
-128 -222 0
-129 -222 0
-132 -220 0
-127 -223 0
-127 -218 0
-133 -219 0
-130 -218 0
-133 -220 0
-128 -224 0
-131 -223 0
-129 -221 0
-128 -223 0
-133 -224 0
-131 -224 0
-128 -221 0
-129 -219 0
-128 -219 0
-131 -221 0
-132 -218 0
-127 -220 0
-129 -224 0
-133 -223 0
-130 -224 0
-131 -222 0
-131 -220 0
-130 -221 0
-131 -219 0
-128 -220 0
-127 -222 0
-129 -218 0
-127 -221 0
-130 -220 0
-127 -219 0
-133 -222 0
-132 -219 0
-130 -222 0
-129 -223 0
-132 -222 0
-130 -223 0
-130 -219 0
-140 -162 0
-137 -164 0
-138 -168 0
-135 -163 0
-137 -163 0
-134 -163 0
-134 -165 0
-135 -166 0
-134 -168 0
-134 -164 0
-135 -167 0
-140 -166 0
-135 -165 0
-140 -165 0
-136 -168 0
-136 -167 0
-139 -164 0
-138 -164 0
-140 -163 0
-135 -162 0
-134 -166 0
-137 -166 0
-139 -168 0
-136 -163 0
-136 -162 0
-139 -165 0
-135 -168 0
-140 -167 0
-138 -165 0
-138 -163 0
-137 -168 0
-134 -167 0
-137 -165 0
-139 -166 0
-137 -167 0
-134 -162 0
-138 -167 0
-140 -168 0
-138 -162 0
-136 -166 0
-136 -164 0
-138 -166 0
-139 -167 0
-135 -164 0
-136 -201 0
-139 -197 0
-135 -200 0
-140 -197 0
-138 -200 0
-135 -198 0
-137 -197 0
-137 -202 0
-135 -199 0
-136 -198 0
-140 -202 0
-136 -197 0
-136 -203 0
-137 -203 0
-137 -199 0
-140 -201 0
-138 -203 0
-139 -198 0
-134 -203 0
-137 -198 0
-135 -197 0
-139 -199 0
-135 -201 0
-136 -199 0
-134 -200 0
-139 -203 0
-134 -202 0
-136 -202 0
-140 -203 0
-140 -199 0
-137 -200 0
-135 -203 0
-138 -202 0
-138 -197 0
-134 -197 0
-134 -201 0
-140 -200 0
-137 -201 0
-138 -198 0
-135 -202 0
-139 -202 0
-138 -199 0
-134 -198 0
-138 -201 0
-136 -210 0
-137 -209 0
-137 -205 0
-140 -205 0
-134 -205 0
-134 -210 0
-135 -206 0
-137 -207 0
-137 -206 0
-139 -208 0
-139 -207 0
-140 -210 0
-137 -208 0
-134 -206 0
-135 -210 0
-140 -206 0
-136 -205 0
-139 -205 0
-139 -206 0
-136 -204 0
-138 -205 0
-136 -209 0
-139 -204 0
-140 -208 0
-140 -209 0
-134 -209 0
-136 -206 0
-140 -204 0
-135 -205 0
-135 -208 0
-135 -207 0
-140 -207 0
-138 -208 0
-136 -207 0
-138 -209 0
-137 -204 0
-138 -210 0
-138 -204 0
-136 -208 0
-134 -207 0
-135 -209 0
-139 -210 0
-138 -207 0
-135 -204 0
-134 -229 0
-138 -229 0
-136 -228 0
-135 -230 0
-137 -227 0
-140 -231 0
-134 -227 0
-138 -231 0
-135 -225 0
-138 -227 0
-136 -229 0
-134 -231 0
-138 -226 0
-137 -229 0
-139 -228 0
-134 -230 0
-134 -225 0
-136 -225 0
-140 -230 0
-139 -231 0
-135 -227 0
-135 -226 0
-139 -229 0
-135 -229 0
-136 -230 0
-137 -231 0
-134 -228 0
-137 -230 0
-139 -230 0
-135 -231 0
-140 -226 0
-140 -229 0
-138 -230 0
-139 -226 0
-136 -227 0
-138 -225 0
-137 -226 0
-136 -231 0
-135 -228 0
-137 -225 0
-140 -227 0
-136 -226 0
-137 -228 0
-140 -228 0
-147 -175 0
-146 -172 0
-141 -175 0
-142 -171 0
-147 -171 0
-144 -170 0
-147 -174 0
-144 -172 0
-144 -169 0
-143 -172 0
-145 -171 0
-146 -171 0
-144 -174 0
-143 -169 0
-145 -172 0
-146 -170 0
-141 -173 0
-141 -174 0
-142 -175 0
-147 -170 0
-143 -175 0
-142 -169 0
-146 -173 0
-145 -175 0
-141 -171 0
-141 -170 0
-143 -174 0
-143 -173 0
-142 -172 0
-143 -171 0
-142 -174 0
-144 -171 0
-145 -174 0
-144 -173 0
-141 -169 0
-145 -170 0
-142 -170 0
-147 -169 0
-142 -173 0
-143 -170 0
-144 -175 0
-141 -172 0
-145 -169 0
-145 -173 0
-144 -180 0
-142 -176 0
-145 -178 0
-145 -177 0
-143 -176 0
-147 -180 0
-145 -180 0
-146 -179 0
-142 -178 0
-142 -182 0
-144 -181 0
-141 -176 0
-146 -182 0
-145 -179 0
-141 -180 0
-144 -178 0
-146 -177 0
-146 -181 0
-143 -180 0
-143 -179 0
-147 -177 0
-141 -179 0
-144 -179 0
-143 -181 0
-141 -178 0
-143 -182 0
-144 -182 0
-144 -177 0
-142 -179 0
-144 -176 0
-146 -176 0
-146 -178 0
-141 -182 0
-145 -182 0
-142 -181 0
-147 -176 0
-143 -178 0
-143 -177 0
-147 -182 0
-147 -179 0
-146 -180 0
-141 -181 0
-145 -181 0
-145 -176 0
-150 -203 0
-148 -197 0
-148 -198 0
-151 -197 0
-152 -197 0
-152 -200 0
-149 -203 0
-153 -200 0
-151 -201 0
-150 -201 0
-151 -198 0
-153 -197 0
-154 -197 0
-151 -199 0
-150 -200 0
-153 -201 0
-149 -202 0
-154 -202 0
-152 -202 0
-150 -197 0
-148 -202 0
-148 -200 0
-150 -198 0
-148 -201 0
-152 -199 0
-151 -200 0
-150 -199 0
-154 -203 0
-150 -202 0
-149 -199 0
-154 -200 0
-153 -199 0
-149 -200 0
-154 -199 0
-153 -203 0
-153 -198 0
-154 -201 0
-151 -203 0
-153 -202 0
-152 -203 0
-154 -198 0
-149 -201 0
-148 -203 0
-148 -199 0
-154 -208 0
-152 -207 0
-148 -210 0
-152 -210 0
-153 -204 0
-149 -209 0
-154 -207 0
-153 -208 0
-151 -210 0
-149 -204 0
-151 -209 0
-150 -208 0
-151 -206 0
-152 -208 0
-149 -207 0
-154 -204 0
-154 -210 0
-149 -210 0
-151 -208 0
-152 -204 0
-153 -205 0
-148 -208 0
-149 -205 0
-153 -209 0
-152 -209 0
-151 -204 0
-148 -209 0
-154 -206 0
-148 -205 0
-153 -206 0
-150 -209 0
-150 -204 0
-148 -206 0
-150 -205 0
-154 -209 0
-152 -206 0
-149 -206 0
-153 -210 0
-151 -205 0
-152 -205 0
-154 -205 0
-151 -207 0
-150 -207 0
-153 -207 0
-160 -186 0
-160 -189 0
-159 -187 0
-156 -184 0
-155 -183 0
-156 -189 0
-157 -189 0
-157 -183 0
-161 -189 0
-159 -184 0
-155 -184 0
-157 -184 0
-156 -187 0
-157 -186 0
-160 -184 0
-156 -188 0
-158 -186 0
-161 -187 0
-160 -187 0
-158 -187 0
-155 -187 0
-157 -185 0
-155 -185 0
-159 -185 0
-157 -188 0
-161 -186 0
-158 -183 0
-161 -188 0
-161 -183 0
-160 -188 0
-155 -186 0
-159 -183 0
-156 -186 0
-155 -188 0
-157 -187 0
-161 -184 0
-161 -185 0
-158 -188 0
-160 -183 0
-158 -184 0
-156 -183 0
-159 -188 0
-159 -189 0
-158 -189 0
-165 -245 0
-167 -244 0
-165 -243 0
-166 -239 0
-165 -239 0
-168 -242 0
-163 -243 0
-162 -239 0
-166 -241 0
-166 -242 0
-164 -242 0
-164 -243 0
-164 -239 0
-164 -244 0
-168 -239 0
-162 -245 0
-164 -240 0
-166 -240 0
-165 -242 0
-168 -240 0
-162 -242 0
-166 -244 0
-168 -241 0
-167 -242 0
-168 -244 0
-165 -241 0
-163 -239 0
-162 -241 0
-166 -245 0
-163 -241 0
-163 -242 0
-165 -240 0
-164 -245 0
-167 -241 0
-164 -241 0
-162 -240 0
-163 -244 0
-162 -244 0
-165 -244 0
-167 -240 0
-168 -245 0
-167 -239 0
-166 -243 0
-167 -245 0
-171 -178 0
-174 -179 0
-172 -182 0
-169 -182 0
-175 -179 0
-173 -177 0
-171 -179 0
-170 -178 0
-175 -182 0
-170 -177 0
-172 -179 0
-175 -178 0
-175 -180 0
-175 -177 0
-172 -177 0
-170 -179 0
-174 -181 0
-174 -182 0
-173 -176 0
-172 -181 0
-175 -181 0
-169 -176 0
-170 -182 0
-174 -178 0
-170 -180 0
-171 -181 0
-169 -178 0
-169 -179 0
-173 -179 0
-172 -180 0
-174 -180 0
-171 -180 0
-170 -176 0
-174 -176 0
-174 -177 0
-169 -177 0
-172 -178 0
-173 -182 0
-169 -181 0
-172 -176 0
-169 -180 0
-171 -177 0
-173 -178 0
-175 -176 0
-172 -223 0
-174 -221 0
-170 -223 0
-175 -224 0
-174 -220 0
-169 -219 0
-171 -222 0
-175 -218 0
-172 -219 0
-170 -219 0
-173 -223 0
-170 -224 0
-173 -224 0
-174 -222 0
-169 -221 0
-173 -221 0
-173 -218 0
-172 -222 0
-171 -219 0
-172 -220 0
-171 -221 0
-172 -221 0
-172 -218 0
-169 -224 0
-171 -218 0
-170 -220 0
-171 -223 0
-169 -223 0
-169 -220 0
-173 -222 0
-174 -219 0
-174 -223 0
-175 -221 0
-175 -219 0
-175 -222 0
-170 -222 0
-171 -224 0
-173 -220 0
-174 -224 0
-169 -218 0
-171 -220 0
-170 -221 0
-172 -224 0
-175 -223 0
-179 -191 0
-179 -194 0
-178 -196 0
-181 -194 0
-178 -192 0
-176 -191 0
-178 -190 0
-180 -191 0
-179 -192 0
-181 -193 0
-180 -193 0
-182 -196 0
-177 -190 0
-180 -194 0
-182 -190 0
-177 -191 0
-178 -193 0
-176 -195 0
-182 -191 0
-180 -192 0
-178 -195 0
-179 -195 0
-181 -196 0
-181 -191 0
-178 -191 0
-182 -195 0
-177 -196 0
-181 -192 0
-176 -190 0
-182 -194 0
-177 -193 0
-178 -194 0
-180 -196 0
-177 -194 0
-181 -195 0
-179 -190 0
-177 -195 0
-182 -193 0
-179 -193 0
-180 -190 0
-176 -196 0
-179 -196 0
-182 -192 0
-177 -192 0
-182 -234 0
-178 -238 0
-176 -235 0
-181 -233 0
-179 -232 0
-180 -232 0
-181 -235 0
-180 -234 0
-179 -235 0
-176 -236 0
-180 -235 0
-176 -237 0
-178 -236 0
-177 -237 0
-178 -237 0
-180 -238 0
-180 -237 0
-176 -232 0
-177 -232 0
-182 -235 0
-177 -236 0
-177 -238 0
-182 -232 0
-181 -237 0
-181 -236 0
-179 -237 0
-180 -236 0
-180 -233 0
-179 -238 0
-177 -233 0
-177 -235 0
-178 -233 0
-178 -232 0
-182 -237 0
-176 -234 0
-179 -236 0
-182 -233 0
-179 -234 0
-179 -233 0
-181 -238 0
-178 -235 0
-178 -234 0
-181 -232 0
-177 -234 0
-209 -214 0
-205 -217 0
-204 -213 0
-208 -214 0
-204 -214 0
-210 -214 0
-210 -217 0
-208 -216 0
-206 -212 0
-209 -212 0
-206 -217 0
-210 -213 0
-207 -213 0
-204 -212 0
-208 -213 0
-206 -211 0
-206 -213 0
-208 -215 0
-209 -213 0
-205 -212 0
-204 -217 0
-205 -213 0
-207 -217 0
-207 -214 0
-210 -211 0
-207 -211 0
-209 -217 0
-208 -217 0
-207 -215 0
-208 -211 0
-205 -214 0
-204 -215 0
-206 -215 0
-205 -211 0
-207 -216 0
-210 -215 0
-209 -216 0
-205 -216 0
-208 -212 0
-205 -215 0
-206 -216 0
-210 -216 0
-206 -214 0
-210 -212 0
-223 -226 0
-223 -231 0
-223 -225 0
-219 -225 0
-219 -229 0
-218 -229 0
-220 -229 0
-218 -227 0
-218 -226 0
-222 -225 0
-223 -227 0
-224 -226 0
-218 -225 0
-219 -227 0
-224 -225 0
-224 -229 0
-222 -229 0
-219 -226 0
-220 -226 0
-221 -229 0
-221 -228 0
-222 -231 0
-218 -231 0
-223 -229 0
-221 -231 0
-224 -231 0
-220 -231 0
-221 -230 0
-219 -230 0
-219 -228 0
-220 -230 0
-222 -227 0
-218 -228 0
-224 -230 0
-222 -228 0
-221 -227 0
-222 -226 0
-224 -227 0
-223 -228 0
-222 -230 0
-221 -225 0
-220 -225 0
-219 -231 0
-221 -226 0
